c   #vars: 75   #clauses: 332   #literals: 906
c 
p cnf 75 332
-1 -2 0
4 -23 48 -56 0
3 -28 52 53 0
20 21 56 57 0
11 54 55 -70 0
-5 -6 0
-7 -8 0
-9 -10 0
-12 -13 0
-14 -15 0
-16 -17 0
5 6 -22 49 0
-18 -19 0
-20 -21 0
-22 -23 0
-24 -25 0
-26 -27 0
-28 -29 0
-30 -31 0
-32 -33 0
-34 -35 0
-36 -37 0
-38 -39 0
-40 -41 0
-42 -43 0
-44 -45 0
-46 -47 0
-22 50 51 60 0
-50 -51 0
-52 -53 0
44 45 67 68 0
-54 -55 0
44 45 56 57 0
-56 -57 0
5 6 40 41 0
-58 -59 0
12 13 -40 69 0
-61 -62 0
-63 -64 0
-65 -66 0
22 23 54 55 0
30 31 58 59 0
12 13 67 68 0
-67 -68 0
-70 -71 0
5 6 58 59 0
-72 -73 0
-74 -75 0
9 10 65 66 0
-1 -44 0
-2 -45 0
-1 -52 0
-2 -53 0
5 6 28 29 0
-1 -54 0
-2 -55 0
42 43 58 59 0
-1 -67 0
-2 -68 0
-1 -74 0
-2 -75 0
12 13 34 35 0
4 48 -56 -62 0
-3 -29 0
4 -23 48 -72 0
-3 -37 0
4 48 -62 -72 0
-3 -53 0
3 28 29 -52 0
-9 50 51 60 0
3 28 29 -36 0
-4 -57 0
34 35 67 68 0
42 43 61 62 0
-9 22 23 60 0
11 44 45 -54 0
3 36 37 -52 0
-4 -73 0
26 27 74 75 0
22 23 49 -72 0
20 21 30 31 0
-5 -28 0
-6 -29 0
14 15 46 47 0
-5 -32 0
-6 -33 0
7 8 70 71 0
-5 -40 0
-6 -41 0
-6 -49 0
7 8 28 29 0
-5 -56 0
-6 -57 0
50 51 61 62 0
-5 -58 0
-6 -59 0
-7 -26 0
-8 -27 0
18 19 30 31 0
-7 -28 0
-8 -29 0
16 17 70 71 0
-7 -38 0
-8 -39 0
16 17 61 62 0
-7 -40 0
-8 -41 0
-7 -70 0
-8 -71 0
16 17 50 51 0
-7 -74 0
-8 -75 0
11 44 45 -70 0
22 23 56 57 0
14 15 40 41 0
14 15 24 25 0
-9 -32 0
-10 -33 0
-9 -52 0
-10 -53 0
32 33 56 57 0
12 13 -32 69 0
-10 -60 0
12 13 65 66 0
-9 -65 0
-10 -66 0
-9 -72 0
-10 -73 0
-11 -45 0
-11 -55 0
16 17 46 47 0
11 -54 70 71 0
18 19 38 39 0
-4 22 23 48 0
-11 -71 0
12 13 26 27 0
22 23 48 -62 0
12 13 50 51 0
-12 -26 0
-13 -27 0
16 17 38 39 0
-12 -34 0
-13 -35 0
34 35 54 55 0
-12 -44 0
-13 -45 0
46 47 52 53 0
-12 -50 0
-13 -51 0
36 37 67 68 0
-12 -65 0
-13 -66 0
9 10 72 73 0
-5 49 72 73 0
22 23 -50 60 0
12 13 44 45 0
-12 -67 0
-13 -68 0
4 -56 72 73 0
-13 -69 0
-14 -24 0
-15 -25 0
-14 -38 0
-15 -39 0
-12 40 41 69 0
-14 -40 0
-15 -41 0
-14 -46 0
-15 -47 0
16 17 63 64 0
-14 -58 0
-15 -59 0
34 35 65 66 0
-16 -38 0
-17 -39 0
-16 -46 0
-17 -47 0
28 29 52 53 0
-16 -50 0
-17 -51 0
26 27 70 71 0
-16 -61 0
-17 -62 0
36 37 65 66 0
-16 -63 0
-17 -64 0
-16 -70 0
-17 -71 0
5 6 49 -72 0
-23 48 61 62 0
42 43 74 75 0
11 -44 70 71 0
4 56 57 -72 0
-4 48 61 62 0
34 35 74 75 0
-18 -24 0
-19 -25 0
1 2 67 68 0
-18 -30 0
-19 -31 0
18 19 34 35 0
-18 -34 0
-19 -35 0
3 -36 52 53 0
-18 -38 0
-19 -39 0
18 19 24 25 0
-20 -30 0
-21 -31 0
4 -48 72 73 0
-20 -42 0
-21 -43 0
7 8 74 75 0
-20 -54 0
-21 -55 0
7 8 26 27 0
-20 -56 0
-21 -57 0
30 31 54 55 0
-22 -44 0
-23 -45 0
5 6 56 57 0
-22 -48 0
9 10 -50 60 0
-32 40 41 69 0
-23 -49 0
9 10 52 53 0
-22 -50 0
-23 -51 0
38 39 67 68 0
-22 -54 0
-23 -55 0
7 8 40 41 0
-22 -56 0
-23 -57 0
28 29 61 62 0
-22 -58 0
-23 -59 0
32 33 -40 69 0
-23 -60 0
-24 -56 0
-25 -57 0
22 23 58 59 0
-24 -63 0
-25 -64 0
-26 -70 0
-27 -71 0
1 2 74 75 0
-26 -74 0
-27 -75 0
3 -28 36 37 0
-28 -52 0
-29 -53 0
11 -44 54 55 0
-28 -61 0
-29 -62 0
-30 -54 0
-31 -55 0
9 10 32 33 0
-30 -58 0
-31 -59 0
46 47 63 64 0
-32 -56 0
-33 -57 0
5 6 32 33 0
-33 -69 0
4 -48 56 57 0
-32 -72 0
-33 -73 0
7 8 38 39 0
-34 -54 0
-35 -55 0
14 15 58 59 0
-34 -65 0
-35 -66 0
38 39 70 71 0
-34 -67 0
-35 -68 0
14 15 38 39 0
-34 -74 0
-35 -75 0
20 21 42 43 0
-36 -56 0
-37 -57 0
-36 -65 0
-37 -66 0
-22 49 72 73 0
-36 -67 0
-37 -68 0
1 2 44 45 0
-38 -67 0
-39 -68 0
32 33 72 73 0
-38 -70 0
-39 -71 0
24 25 56 57 0
-40 -63 0
-41 -64 0
40 41 74 75 0
-41 -69 0
-40 -74 0
-41 -75 0
24 25 63 64 0
-42 -58 0
-43 -59 0
40 41 63 64 0
-42 -61 0
-43 -62 0
36 37 56 57 0
-42 -74 0
-43 -75 0
1 2 54 55 0
-44 -56 0
-45 -57 0
20 21 54 55 0
-44 -67 0
-45 -68 0
-5 22 23 49 0
-46 -52 0
-47 -53 0
22 23 50 51 0
-46 -63 0
-47 -64 0
-48 -61 0
9 10 -22 60 0
-49 -73 0
22 23 44 45 0
-12 32 33 69 0
-51 -60 0
1 2 52 53 0
-50 -61 0
-51 -62 0
